c 
c G(n,p) graph
c graph gen seed     : 401917
c number of vertices : 80
c max number of edges: 3160
c edge probability   : 0.600000
c data structure     : dense
c
c           Graph Stats
c number of vertices  : 80
c nonisolated vertices: 80
c number of edges     : 1916
c edge density        : 0.606329
c max degree          : 60
c avg degree          : 47.90
c min degree          : 39
p col 80 1916
e 1 2
e 1 3
e 1 4
e 1 5
e 1 7
e 1 9
e 1 11
e 1 13
e 1 15
e 1 17
e 1 18
e 1 20
e 1 21
e 1 23
e 1 24
e 1 29
e 1 31
e 1 34
e 1 36
e 1 37
e 1 41
e 1 42
e 1 43
e 1 46
e 1 48
e 1 52
e 1 54
e 1 55
e 1 57
e 1 58
e 1 59
e 1 60
e 1 61
e 1 63
e 1 64
e 1 65
e 1 66
e 1 67
e 1 68
e 1 70
e 1 76
e 1 77
e 1 79
e 1 80
e 2 3
e 2 6
e 2 7
e 2 8
e 2 12
e 2 13
e 2 16
e 2 18
e 2 19
e 2 22
e 2 23
e 2 25
e 2 26
e 2 27
e 2 29
e 2 30
e 2 33
e 2 35
e 2 36
e 2 37
e 2 39
e 2 40
e 2 42
e 2 43
e 2 44
e 2 45
e 2 48
e 2 49
e 2 50
e 2 51
e 2 53
e 2 54
e 2 56
e 2 57
e 2 58
e 2 60
e 2 61
e 2 64
e 2 65
e 2 66
e 2 68
e 2 69
e 2 70
e 2 71
e 2 73
e 2 74
e 2 75
e 2 77
e 2 78
e 2 79
e 3 5
e 3 7
e 3 11
e 3 13
e 3 15
e 3 16
e 3 18
e 3 19
e 3 20
e 3 22
e 3 25
e 3 27
e 3 28
e 3 31
e 3 32
e 3 33
e 3 34
e 3 35
e 3 36
e 3 37
e 3 41
e 3 42
e 3 43
e 3 45
e 3 46
e 3 49
e 3 51
e 3 54
e 3 55
e 3 56
e 3 58
e 3 60
e 3 61
e 3 62
e 3 63
e 3 64
e 3 65
e 3 66
e 3 67
e 3 68
e 3 69
e 3 70
e 3 74
e 3 75
e 3 78
e 3 80
e 4 5
e 4 6
e 4 7
e 4 8
e 4 9
e 4 11
e 4 12
e 4 13
e 4 14
e 4 15
e 4 16
e 4 18
e 4 19
e 4 20
e 4 21
e 4 22
e 4 23
e 4 26
e 4 27
e 4 28
e 4 30
e 4 31
e 4 32
e 4 35
e 4 37
e 4 38
e 4 39
e 4 41
e 4 43
e 4 45
e 4 48
e 4 49
e 4 51
e 4 52
e 4 55
e 4 56
e 4 58
e 4 62
e 4 63
e 4 64
e 4 65
e 4 66
e 4 67
e 4 68
e 4 69
e 4 70
e 4 72
e 4 73
e 4 74
e 4 75
e 4 76
e 4 77
e 4 79
e 4 80
e 5 7
e 5 9
e 5 10
e 5 11
e 5 12
e 5 14
e 5 15
e 5 16
e 5 18
e 5 19
e 5 20
e 5 21
e 5 24
e 5 25
e 5 27
e 5 29
e 5 30
e 5 32
e 5 33
e 5 34
e 5 36
e 5 40
e 5 41
e 5 42
e 5 45
e 5 46
e 5 48
e 5 50
e 5 51
e 5 52
e 5 53
e 5 54
e 5 55
e 5 56
e 5 59
e 5 61
e 5 62
e 5 63
e 5 65
e 5 67
e 5 68
e 5 69
e 5 70
e 5 71
e 5 73
e 5 75
e 5 76
e 5 78
e 5 79
e 6 8
e 6 9
e 6 11
e 6 12
e 6 13
e 6 17
e 6 18
e 6 19
e 6 21
e 6 22
e 6 23
e 6 26
e 6 29
e 6 30
e 6 31
e 6 35
e 6 37
e 6 38
e 6 41
e 6 43
e 6 44
e 6 46
e 6 47
e 6 48
e 6 49
e 6 51
e 6 53
e 6 55
e 6 56
e 6 59
e 6 61
e 6 62
e 6 63
e 6 70
e 6 71
e 6 72
e 6 76
e 6 79
e 6 80
e 7 8
e 7 9
e 7 10
e 7 12
e 7 13
e 7 14
e 7 15
e 7 16
e 7 18
e 7 19
e 7 20
e 7 22
e 7 24
e 7 28
e 7 31
e 7 32
e 7 33
e 7 34
e 7 35
e 7 37
e 7 38
e 7 39
e 7 40
e 7 42
e 7 43
e 7 44
e 7 45
e 7 47
e 7 48
e 7 49
e 7 50
e 7 51
e 7 52
e 7 55
e 7 58
e 7 59
e 7 61
e 7 64
e 7 65
e 7 66
e 7 67
e 7 69
e 7 73
e 7 75
e 7 77
e 7 79
e 7 80
e 8 9
e 8 12
e 8 14
e 8 15
e 8 18
e 8 19
e 8 20
e 8 21
e 8 22
e 8 26
e 8 27
e 8 29
e 8 31
e 8 32
e 8 33
e 8 34
e 8 36
e 8 37
e 8 39
e 8 40
e 8 43
e 8 44
e 8 46
e 8 53
e 8 54
e 8 56
e 8 58
e 8 59
e 8 60
e 8 61
e 8 62
e 8 63
e 8 64
e 8 66
e 8 68
e 8 69
e 8 70
e 8 71
e 8 72
e 8 74
e 8 75
e 8 76
e 8 78
e 8 79
e 9 10
e 9 14
e 9 15
e 9 18
e 9 19
e 9 21
e 9 22
e 9 24
e 9 25
e 9 26
e 9 29
e 9 30
e 9 32
e 9 38
e 9 39
e 9 40
e 9 41
e 9 42
e 9 43
e 9 45
e 9 46
e 9 48
e 9 50
e 9 51
e 9 53
e 9 54
e 9 57
e 9 59
e 9 62
e 9 63
e 9 64
e 9 65
e 9 66
e 9 69
e 9 70
e 9 71
e 9 76
e 9 78
e 9 80
e 10 11
e 10 14
e 10 19
e 10 21
e 10 22
e 10 24
e 10 25
e 10 27
e 10 29
e 10 31
e 10 32
e 10 33
e 10 34
e 10 36
e 10 37
e 10 38
e 10 39
e 10 41
e 10 43
e 10 44
e 10 47
e 10 48
e 10 50
e 10 52
e 10 53
e 10 55
e 10 57
e 10 58
e 10 61
e 10 67
e 10 69
e 10 70
e 10 71
e 10 73
e 10 75
e 10 77
e 10 78
e 10 79
e 10 80
e 11 12
e 11 14
e 11 15
e 11 16
e 11 17
e 11 20
e 11 21
e 11 23
e 11 24
e 11 27
e 11 28
e 11 29
e 11 30
e 11 31
e 11 34
e 11 35
e 11 36
e 11 37
e 11 39
e 11 41
e 11 42
e 11 44
e 11 46
e 11 47
e 11 48
e 11 49
e 11 51
e 11 52
e 11 54
e 11 55
e 11 57
e 11 60
e 11 61
e 11 62
e 11 63
e 11 64
e 11 66
e 11 67
e 11 68
e 11 69
e 11 70
e 11 73
e 11 74
e 11 76
e 11 77
e 11 78
e 11 80
e 12 13
e 12 14
e 12 16
e 12 17
e 12 20
e 12 22
e 12 23
e 12 25
e 12 27
e 12 28
e 12 29
e 12 31
e 12 32
e 12 36
e 12 37
e 12 38
e 12 39
e 12 40
e 12 41
e 12 44
e 12 46
e 12 48
e 12 51
e 12 52
e 12 53
e 12 54
e 12 58
e 12 59
e 12 60
e 12 61
e 12 62
e 12 63
e 12 64
e 12 65
e 12 66
e 12 68
e 12 70
e 12 73
e 12 75
e 12 78
e 12 79
e 12 80
e 13 15
e 13 16
e 13 17
e 13 18
e 13 19
e 13 20
e 13 21
e 13 22
e 13 24
e 13 26
e 13 27
e 13 28
e 13 30
e 13 32
e 13 33
e 13 34
e 13 35
e 13 37
e 13 38
e 13 40
e 13 41
e 13 44
e 13 45
e 13 46
e 13 47
e 13 51
e 13 53
e 13 54
e 13 55
e 13 57
e 13 58
e 13 59
e 13 60
e 13 61
e 13 69
e 13 71
e 13 72
e 13 73
e 13 75
e 13 76
e 13 78
e 13 79
e 14 15
e 14 17
e 14 19
e 14 20
e 14 24
e 14 25
e 14 26
e 14 27
e 14 28
e 14 29
e 14 30
e 14 31
e 14 32
e 14 33
e 14 37
e 14 39
e 14 40
e 14 41
e 14 43
e 14 44
e 14 45
e 14 46
e 14 47
e 14 48
e 14 49
e 14 51
e 14 52
e 14 53
e 14 54
e 14 56
e 14 58
e 14 59
e 14 60
e 14 63
e 14 65
e 14 67
e 14 69
e 14 71
e 14 74
e 14 77
e 14 78
e 15 16
e 15 18
e 15 19
e 15 21
e 15 22
e 15 23
e 15 25
e 15 27
e 15 29
e 15 30
e 15 31
e 15 32
e 15 33
e 15 35
e 15 36
e 15 38
e 15 40
e 15 41
e 15 44
e 15 45
e 15 46
e 15 47
e 15 48
e 15 49
e 15 50
e 15 51
e 15 52
e 15 56
e 15 58
e 15 61
e 15 62
e 15 64
e 15 65
e 15 67
e 15 69
e 15 70
e 15 72
e 15 75
e 15 78
e 15 80
e 16 18
e 16 19
e 16 24
e 16 25
e 16 26
e 16 27
e 16 29
e 16 30
e 16 32
e 16 33
e 16 34
e 16 35
e 16 36
e 16 38
e 16 39
e 16 41
e 16 42
e 16 44
e 16 45
e 16 47
e 16 51
e 16 52
e 16 58
e 16 59
e 16 60
e 16 62
e 16 63
e 16 66
e 16 67
e 16 68
e 16 69
e 16 71
e 16 73
e 16 74
e 16 75
e 16 77
e 16 78
e 16 79
e 16 80
e 17 18
e 17 20
e 17 21
e 17 23
e 17 26
e 17 27
e 17 28
e 17 29
e 17 30
e 17 32
e 17 34
e 17 35
e 17 36
e 17 37
e 17 38
e 17 41
e 17 43
e 17 44
e 17 46
e 17 47
e 17 49
e 17 51
e 17 52
e 17 54
e 17 55
e 17 56
e 17 57
e 17 59
e 17 63
e 17 64
e 17 65
e 17 67
e 17 68
e 17 70
e 17 71
e 17 73
e 17 76
e 17 77
e 17 79
e 17 80
e 18 19
e 18 21
e 18 22
e 18 23
e 18 24
e 18 25
e 18 27
e 18 28
e 18 30
e 18 31
e 18 34
e 18 35
e 18 36
e 18 37
e 18 39
e 18 40
e 18 42
e 18 43
e 18 44
e 18 45
e 18 48
e 18 49
e 18 51
e 18 52
e 18 53
e 18 54
e 18 55
e 18 56
e 18 57
e 18 58
e 18 59
e 18 60
e 18 63
e 18 64
e 18 65
e 18 67
e 18 68
e 18 69
e 18 70
e 18 71
e 18 73
e 18 74
e 18 75
e 18 76
e 18 78
e 18 79
e 18 80
e 19 21
e 19 23
e 19 25
e 19 28
e 19 29
e 19 30
e 19 32
e 19 33
e 19 34
e 19 35
e 19 36
e 19 37
e 19 39
e 19 44
e 19 46
e 19 48
e 19 49
e 19 51
e 19 52
e 19 54
e 19 55
e 19 58
e 19 59
e 19 61
e 19 65
e 19 66
e 19 67
e 19 70
e 19 72
e 19 76
e 20 21
e 20 22
e 20 25
e 20 27
e 20 30
e 20 31
e 20 33
e 20 34
e 20 35
e 20 37
e 20 38
e 20 39
e 20 40
e 20 41
e 20 42
e 20 43
e 20 44
e 20 46
e 20 47
e 20 48
e 20 49
e 20 52
e 20 53
e 20 54
e 20 56
e 20 57
e 20 60
e 20 61
e 20 64
e 20 65
e 20 67
e 20 69
e 20 71
e 20 72
e 20 74
e 20 76
e 20 78
e 20 79
e 21 23
e 21 24
e 21 26
e 21 27
e 21 28
e 21 29
e 21 30
e 21 32
e 21 35
e 21 39
e 21 40
e 21 42
e 21 45
e 21 46
e 21 48
e 21 49
e 21 50
e 21 52
e 21 53
e 21 54
e 21 55
e 21 57
e 21 59
e 21 60
e 21 61
e 21 62
e 21 63
e 21 64
e 21 65
e 21 66
e 21 67
e 21 68
e 21 69
e 21 71
e 21 73
e 21 78
e 21 79
e 21 80
e 22 23
e 22 25
e 22 26
e 22 28
e 22 29
e 22 30
e 22 31
e 22 32
e 22 33
e 22 36
e 22 37
e 22 38
e 22 39
e 22 41
e 22 46
e 22 47
e 22 48
e 22 49
e 22 51
e 22 52
e 22 54
e 22 55
e 22 56
e 22 58
e 22 59
e 22 61
e 22 62
e 22 63
e 22 64
e 22 67
e 22 68
e 22 69
e 22 70
e 22 71
e 22 72
e 22 75
e 22 77
e 22 78
e 22 79
e 22 80
e 23 24
e 23 26
e 23 29
e 23 35
e 23 36
e 23 40
e 23 42
e 23 46
e 23 49
e 23 50
e 23 51
e 23 53
e 23 54
e 23 55
e 23 57
e 23 58
e 23 59
e 23 61
e 23 63
e 23 64
e 23 65
e 23 68
e 23 70
e 23 72
e 23 74
e 23 77
e 23 78
e 23 79
e 24 25
e 24 26
e 24 27
e 24 30
e 24 33
e 24 35
e 24 36
e 24 37
e 24 38
e 24 39
e 24 40
e 24 41
e 24 42
e 24 43
e 24 47
e 24 50
e 24 51
e 24 52
e 24 57
e 24 58
e 24 59
e 24 63
e 24 65
e 24 66
e 24 67
e 24 68
e 24 69
e 24 71
e 24 72
e 24 74
e 24 75
e 24 77
e 24 78
e 24 79
e 25 26
e 25 28
e 25 30
e 25 31
e 25 33
e 25 34
e 25 36
e 25 37
e 25 38
e 25 45
e 25 48
e 25 49
e 25 52
e 25 54
e 25 55
e 25 57
e 25 58
e 25 59
e 25 61
e 25 62
e 25 64
e 25 66
e 25 67
e 25 69
e 25 71
e 25 72
e 25 73
e 25 74
e 25 76
e 25 77
e 25 78
e 25 79
e 26 27
e 26 28
e 26 29
e 26 30
e 26 32
e 26 33
e 26 34
e 26 35
e 26 37
e 26 38
e 26 40
e 26 41
e 26 42
e 26 43
e 26 44
e 26 46
e 26 47
e 26 50
e 26 51
e 26 52
e 26 55
e 26 58
e 26 61
e 26 62
e 26 63
e 26 64
e 26 65
e 26 66
e 26 67
e 26 68
e 26 69
e 26 71
e 26 72
e 26 74
e 26 75
e 26 76
e 26 77
e 26 78
e 26 80
e 27 28
e 27 29
e 27 30
e 27 31
e 27 32
e 27 35
e 27 36
e 27 39
e 27 40
e 27 42
e 27 43
e 27 44
e 27 45
e 27 47
e 27 48
e 27 49
e 27 50
e 27 51
e 27 55
e 27 56
e 27 59
e 27 64
e 27 65
e 27 66
e 27 67
e 27 68
e 27 70
e 27 71
e 27 72
e 27 73
e 27 74
e 27 75
e 27 77
e 27 79
e 27 80
e 28 29
e 28 33
e 28 34
e 28 36
e 28 37
e 28 38
e 28 40
e 28 41
e 28 42
e 28 43
e 28 46
e 28 47
e 28 49
e 28 50
e 28 52
e 28 54
e 28 55
e 28 56
e 28 60
e 28 61
e 28 62
e 28 64
e 28 66
e 28 67
e 28 71
e 28 72
e 28 74
e 28 75
e 28 80
e 29 32
e 29 36
e 29 37
e 29 38
e 29 39
e 29 41
e 29 43
e 29 44
e 29 46
e 29 47
e 29 48
e 29 49
e 29 51
e 29 53
e 29 56
e 29 57
e 29 58
e 29 60
e 29 62
e 29 63
e 29 66
e 29 67
e 29 68
e 29 69
e 29 71
e 29 72
e 29 74
e 29 77
e 29 78
e 29 79
e 30 31
e 30 33
e 30 36
e 30 38
e 30 39
e 30 41
e 30 42
e 30 45
e 30 46
e 30 47
e 30 51
e 30 52
e 30 53
e 30 56
e 30 58
e 30 59
e 30 60
e 30 63
e 30 65
e 30 66
e 30 67
e 30 68
e 30 69
e 30 71
e 30 72
e 30 74
e 30 75
e 30 76
e 30 77
e 30 78
e 30 80
e 31 33
e 31 34
e 31 35
e 31 38
e 31 39
e 31 41
e 31 42
e 31 44
e 31 49
e 31 50
e 31 51
e 31 52
e 31 53
e 31 54
e 31 55
e 31 60
e 31 61
e 31 62
e 31 64
e 31 65
e 31 68
e 31 70
e 31 72
e 31 73
e 31 74
e 31 75
e 31 76
e 31 77
e 31 78
e 31 79
e 31 80
e 32 33
e 32 35
e 32 36
e 32 37
e 32 38
e 32 39
e 32 41
e 32 42
e 32 44
e 32 45
e 32 46
e 32 47
e 32 48
e 32 50
e 32 51
e 32 52
e 32 54
e 32 55
e 32 56
e 32 58
e 32 59
e 32 62
e 32 63
e 32 64
e 32 66
e 32 70
e 32 74
e 32 78
e 32 80
e 33 35
e 33 36
e 33 42
e 33 44
e 33 45
e 33 46
e 33 50
e 33 51
e 33 53
e 33 54
e 33 57
e 33 61
e 33 62
e 33 63
e 33 65
e 33 66
e 33 67
e 33 69
e 33 70
e 33 71
e 33 73
e 33 75
e 33 77
e 33 78
e 33 79
e 33 80
e 34 35
e 34 39
e 34 40
e 34 42
e 34 44
e 34 46
e 34 47
e 34 48
e 34 51
e 34 54
e 34 55
e 34 56
e 34 57
e 34 59
e 34 60
e 34 63
e 34 64
e 34 66
e 34 68
e 34 69
e 34 70
e 34 71
e 34 72
e 34 73
e 34 74
e 34 76
e 34 77
e 34 78
e 35 36
e 35 39
e 35 41
e 35 42
e 35 45
e 35 47
e 35 48
e 35 49
e 35 52
e 35 53
e 35 58
e 35 59
e 35 61
e 35 63
e 35 64
e 35 65
e 35 67
e 35 68
e 35 69
e 35 70
e 35 71
e 35 72
e 35 73
e 35 75
e 35 76
e 35 78
e 35 80
e 36 37
e 36 38
e 36 39
e 36 40
e 36 41
e 36 44
e 36 45
e 36 47
e 36 48
e 36 49
e 36 53
e 36 54
e 36 57
e 36 58
e 36 60
e 36 61
e 36 62
e 36 63
e 36 66
e 36 69
e 36 71
e 36 73
e 36 75
e 36 76
e 36 77
e 36 79
e 37 39
e 37 40
e 37 41
e 37 42
e 37 44
e 37 45
e 37 47
e 37 49
e 37 51
e 37 52
e 37 53
e 37 54
e 37 55
e 37 57
e 37 58
e 37 60
e 37 62
e 37 64
e 37 65
e 37 68
e 37 69
e 37 70
e 37 73
e 37 75
e 37 79
e 37 80
e 38 42
e 38 43
e 38 44
e 38 45
e 38 47
e 38 48
e 38 49
e 38 51
e 38 56
e 38 57
e 38 58
e 38 59
e 38 60
e 38 61
e 38 62
e 38 63
e 38 65
e 38 68
e 38 69
e 38 71
e 38 73
e 38 74
e 38 76
e 38 77
e 38 78
e 38 79
e 38 80
e 39 41
e 39 42
e 39 45
e 39 46
e 39 47
e 39 52
e 39 53
e 39 54
e 39 56
e 39 60
e 39 63
e 39 64
e 39 65
e 39 67
e 39 69
e 39 70
e 39 71
e 39 73
e 39 75
e 39 76
e 39 77
e 39 79
e 39 80
e 40 41
e 40 42
e 40 43
e 40 44
e 40 45
e 40 46
e 40 47
e 40 50
e 40 52
e 40 53
e 40 54
e 40 55
e 40 59
e 40 61
e 40 63
e 40 64
e 40 65
e 40 67
e 40 68
e 40 69
e 40 70
e 40 71
e 40 72
e 40 73
e 40 75
e 40 76
e 40 78
e 41 42
e 41 43
e 41 45
e 41 49
e 41 50
e 41 52
e 41 53
e 41 54
e 41 55
e 41 57
e 41 59
e 41 60
e 41 61
e 41 63
e 41 64
e 41 65
e 41 68
e 41 70
e 41 71
e 41 72
e 41 73
e 41 74
e 41 75
e 41 77
e 41 78
e 41 80
e 42 43
e 42 46
e 42 47
e 42 50
e 42 51
e 42 53
e 42 54
e 42 56
e 42 57
e 42 60
e 42 63
e 42 64
e 42 65
e 42 66
e 42 69
e 42 70
e 42 71
e 42 72
e 42 75
e 42 77
e 42 78
e 42 79
e 42 80
e 43 44
e 43 45
e 43 46
e 43 47
e 43 48
e 43 49
e 43 50
e 43 51
e 43 53
e 43 56
e 43 57
e 43 59
e 43 61
e 43 62
e 43 64
e 43 65
e 43 69
e 43 71
e 43 76
e 43 78
e 43 79
e 43 80
e 44 46
e 44 48
e 44 50
e 44 51
e 44 54
e 44 57
e 44 59
e 44 60
e 44 62
e 44 64
e 44 66
e 44 68
e 44 70
e 44 71
e 44 72
e 44 73
e 44 75
e 44 76
e 44 79
e 45 46
e 45 47
e 45 48
e 45 49
e 45 51
e 45 54
e 45 55
e 45 56
e 45 57
e 45 59
e 45 62
e 45 63
e 45 65
e 45 66
e 45 67
e 45 68
e 45 69
e 45 71
e 45 75
e 45 76
e 45 77
e 45 78
e 45 80
e 46 47
e 46 49
e 46 50
e 46 51
e 46 52
e 46 54
e 46 57
e 46 60
e 46 61
e 46 62
e 46 63
e 46 64
e 46 65
e 46 66
e 46 68
e 46 71
e 46 72
e 46 73
e 46 79
e 47 49
e 47 50
e 47 51
e 47 53
e 47 54
e 47 55
e 47 58
e 47 60
e 47 61
e 47 62
e 47 64
e 47 65
e 47 66
e 47 67
e 47 69
e 47 71
e 47 72
e 47 73
e 47 76
e 47 78
e 47 79
e 47 80
e 48 49
e 48 53
e 48 54
e 48 55
e 48 56
e 48 58
e 48 60
e 48 61
e 48 62
e 48 63
e 48 64
e 48 66
e 48 68
e 48 69
e 48 70
e 48 72
e 48 74
e 48 75
e 48 79
e 49 51
e 49 52
e 49 53
e 49 55
e 49 57
e 49 58
e 49 59
e 49 60
e 49 61
e 49 62
e 49 63
e 49 65
e 49 66
e 49 67
e 49 72
e 49 73
e 49 78
e 50 51
e 50 53
e 50 54
e 50 55
e 50 56
e 50 59
e 50 61
e 50 63
e 50 65
e 50 66
e 50 70
e 50 72
e 50 73
e 50 74
e 50 75
e 50 76
e 50 79
e 51 53
e 51 54
e 51 56
e 51 57
e 51 59
e 51 61
e 51 62
e 51 63
e 51 64
e 51 66
e 51 67
e 51 68
e 51 69
e 51 70
e 51 71
e 51 72
e 51 73
e 51 75
e 51 77
e 51 78
e 51 79
e 51 80
e 52 54
e 52 55
e 52 56
e 52 57
e 52 58
e 52 59
e 52 61
e 52 63
e 52 65
e 52 68
e 52 69
e 52 73
e 52 74
e 52 75
e 52 77
e 52 80
e 53 57
e 53 61
e 53 62
e 53 64
e 53 65
e 53 66
e 53 67
e 53 68
e 53 70
e 53 72
e 53 73
e 53 74
e 53 77
e 53 78
e 53 79
e 54 55
e 54 56
e 54 57
e 54 58
e 54 60
e 54 61
e 54 67
e 54 71
e 54 75
e 54 76
e 54 79
e 54 80
e 55 56
e 55 57
e 55 63
e 55 64
e 55 67
e 55 70
e 55 72
e 55 74
e 55 77
e 55 78
e 56 57
e 56 58
e 56 60
e 56 61
e 56 64
e 56 68
e 56 69
e 56 70
e 56 72
e 56 73
e 56 76
e 56 78
e 56 79
e 56 80
e 57 58
e 57 62
e 57 63
e 57 66
e 57 67
e 57 68
e 57 69
e 57 70
e 57 73
e 57 75
e 57 76
e 57 78
e 57 79
e 57 80
e 58 59
e 58 60
e 58 61
e 58 62
e 58 63
e 58 64
e 58 66
e 58 72
e 58 73
e 58 74
e 58 75
e 58 77
e 58 79
e 58 80
e 59 60
e 59 61
e 59 62
e 59 63
e 59 64
e 59 67
e 59 70
e 59 71
e 59 72
e 59 73
e 59 78
e 59 80
e 60 63
e 60 67
e 60 69
e 60 76
e 60 77
e 60 78
e 60 79
e 61 63
e 61 65
e 61 66
e 61 68
e 61 70
e 61 72
e 61 74
e 61 75
e 61 76
e 61 78
e 61 80
e 62 67
e 62 69
e 62 71
e 62 73
e 62 74
e 62 75
e 62 76
e 62 77
e 62 78
e 62 79
e 63 64
e 63 66
e 63 67
e 63 68
e 63 71
e 63 73
e 63 74
e 63 75
e 63 79
e 63 80
e 64 65
e 64 66
e 64 68
e 64 70
e 64 73
e 64 74
e 64 76
e 64 78
e 64 79
e 65 66
e 65 67
e 65 68
e 65 69
e 65 70
e 65 73
e 65 74
e 65 75
e 65 76
e 66 67
e 66 72
e 66 73
e 66 74
e 66 76
e 66 77
e 66 78
e 67 69
e 67 70
e 67 72
e 67 73
e 67 76
e 67 79
e 67 80
e 68 74
e 68 75
e 68 76
e 68 77
e 68 78
e 68 79
e 68 80
e 69 70
e 69 71
e 69 72
e 69 73
e 69 74
e 69 75
e 69 77
e 69 79
e 69 80
e 70 71
e 70 73
e 70 74
e 70 77
e 70 78
e 71 73
e 71 74
e 71 75
e 71 78
e 71 79
e 72 73
e 72 74
e 72 80
e 73 74
e 73 75
e 73 79
e 73 80
e 74 76
e 74 77
e 74 78
e 74 79
e 75 76
e 75 79
e 75 80
e 76 77
e 76 78
e 76 79
e 76 80
e 77 80
e 78 79
e 79 80
